\ LP format - for model browsing. Use MPS format to capture full model detail.
Minimize
  zeta_sub_0
Subject To
 R0: zeta_sub_0 + 1.989679458e+09 y_0_0 - 1.890944246e+09 y_0_1
   + 7.66597959e+08 y_0_2 - 1.003008867e+09 y_0_3 + 1.791385734e+09 y_0_4
   - 2.126359069e+09 y_0_5 - 2.110151194e+09 y_0_6 + 1.475746753e+09 y_0_7
   - 1.708302903e+09 y_0_8 + 6.60017249e+08 y_0_9 - 2.051814136e+09 y_0_10
   - 1.883559938e+09 y_0_11 - 2.129483634e+09 y_0_12
   - 9.15851321e+08 y_0_13 - 1.44673006e+09 y_0_14 + 1.354843549e+09 y_0_15
   - 9.42915579e+08 y_0_16 + 1.264067691e+09 y_0_17
   - 2.112061377e+09 y_0_18 - 1.460934e+09 y_0_19 + 5.26154408e+08 y_0_20
   - 1.135837502e+09 y_0_21 - 1.854325035e+09 y_0_22 >= 0
 R1: y_0_6 + y_0_7 + y_0_8 + y_0_9 + y_0_10 = 1
 R2: y_0_16 + y_0_17 + y_0_18 = 0
 R3: - y_0_6 + y_0_11 + y_0_12 + y_0_13 = 0
 R4: y_0_0 + y_0_1 + y_0_2 - y_0_9 = 0
 R5: - y_0_0 + y_0_3 + y_0_4 - y_0_8 - y_0_11 = 0
 R6: - y_0_2 + y_0_14 + y_0_15 - y_0_17 = 0
 R7: - y_0_10 - y_0_13 - y_0_16 + y_0_19 + y_0_20 = 0
 R8: - y_0_7 - y_0_12 + y_0_21 = 0
 R9: - y_0_4 - y_0_15 - y_0_18 - y_0_19 + y_0_22 = 0
 R10: - y_0_1 - y_0_3 + y_0_5 = 0
 R11: - y_0_5 - y_0_14 - y_0_20 - y_0_21 - y_0_22 = -1
Bounds
 y_0_0 <= 1
 y_0_1 <= 1
 y_0_2 <= 1
 y_0_3 <= 1
 y_0_4 <= 1
 y_0_5 <= 1
 y_0_6 <= 1
 y_0_7 <= 1
 y_0_8 <= 1
 y_0_9 <= 1
 y_0_10 <= 1
 y_0_11 <= 1
 y_0_12 <= 1
 y_0_13 <= 1
 y_0_14 <= 1
 y_0_15 <= 1
 y_0_16 <= 1
 y_0_17 <= 1
 y_0_18 <= 1
 y_0_19 <= 1
 y_0_20 <= 1
 y_0_21 <= 1
 y_0_22 <= 1
End
